301 5
10 10 10 10 10 

0 0 0 0 0 0 5 2 34 66 98 130 
0 0 0 0 0 0 3 3 4 32 
2 0 1 1 0 1 2 31 5 
1 0 2 4 0 1 3 31 13 6 
4 0 4 4 0 1 2 13 6 
7 0 4 2 0 2 1 7 
1 0 2 1 0 3 3 30 29 8 
4 0 1 3 0 3 1 9 
7 0 3 1 0 4 2 28 10 
8 0 4 2 0 2 3 27 26 11 
4 0 5 6 0 3 1 12 
10 0 2 3 0 2 1 14 
9 0 2 1 0 2 3 25 20 16 
10 0 2 3 0 3 2 25 15 
7 0 3 2 0 3 1 16 
5 0 5 1 0 1 3 23 19 17 
3 0 2 1 0 6 4 24 21 18 200 
4 0 2 1 0 3 1 22 
2 0 5 2 0 3 1 21 
9 0 1 4 0 1 1 23 
9 0 1 4 0 5 1 33 
5 0 2 1 0 2 1 33 
5 0 2 1 0 2 1 33 
10 0 2 4 0 1 1 33 
2 0 2 4 0 3 1 33 
6 0 3 6 0 3 1 33 
1 0 4 3 0 2 1 33 
9 0 2 2 0 1 1 33 
3 0 2 3 0 3 1 33 
5 0 2 1 0 3 1 33 
1 0 1 2 0 2 1 33 
6 0 2 2 0 4 1 33 
0 0 0 0 0 0 1 278 
0 0 0 0 0 0 8 35 58 59 60 61 62 63 64 
7 0 0 1 1 1 2 57 36 
7 0 0 3 3 3 3 56 55 37 
10 0 0 2 3 6 1 38 
2 0 0 1 1 4 1 39 
5 0 0 2 5 1 2 54 40 
7 0 0 3 3 1 2 53 41 
5 0 0 3 3 4 2 52 42 
7 0 0 1 2 3 1 43 
10 0 0 2 2 2 2 51 44 
8 0 0 5 4 1 2 50 45 
8 0 0 4 3 1 1 46 
1 0 0 1 1 3 1 47 
5 0 0 2 3 3 1 48 
9 0 0 1 2 4 2 49 226 
4 0 0 4 2 3 1 65 
2 0 0 1 2 1 1 65 
8 0 0 1 3 1 1 65 
8 0 0 2 2 1 1 65 
2 0 0 1 4 2 1 65 
1 0 0 4 2 3 1 65 
3 0 0 2 2 3 1 65 
7 0 0 5 2 1 1 65 
6 0 0 4 4 3 1 65 
8 0 0 4 2 3 1 65 
10 0 0 7 4 2 1 65 
3 0 0 2 4 3 1 65 
3 0 0 2 2 1 1 65 
10 0 0 2 2 4 1 65 
4 0 0 2 1 3 1 65 
7 0 0 1 1 4 1 65 
0 0 0 0 0 0 1 278 
0 0 0 0 0 0 3 67 68 89 
6 1 0 1 1 0 2 96 69 
10 2 0 4 2 0 2 96 69 
7 5 0 2 2 0 2 73 70 
9 2 0 2 3 0 2 77 71 
4 3 0 5 1 0 2 95 72 
8 1 0 3 3 0 2 83 74 
6 4 0 1 2 0 3 77 75 184 
1 3 0 1 4 0 1 75 
7 1 0 2 1 0 3 88 80 76 
8 3 0 2 6 0 2 85 78 
9 4 0 1 3 0 2 88 78 
2 4 0 4 2 0 1 79 
3 4 0 2 3 0 2 94 81 
1 3 0 3 2 0 2 94 82 
2 5 0 3 1 0 1 82 
6 2 0 2 3 0 3 93 87 84 
2 3 0 3 2 0 4 93 92 91 86 
1 3 0 2 2 0 3 92 91 86 
4 2 0 4 3 0 1 86 
4 3 0 1 4 0 1 90 
4 2 0 3 3 0 1 92 
4 1 0 3 2 0 1 94 
3 3 0 1 1 0 1 91 
8 2 0 2 2 0 1 97 
10 2 0 4 3 0 1 97 
5 1 0 4 2 0 1 97 
7 2 0 4 3 0 1 97 
10 1 0 1 3 0 1 97 
5 1 0 4 4 0 1 97 
5 2 0 1 2 0 1 97 
0 0 0 0 0 0 1 278 
0 0 0 0 0 0 3 99 100 128 
3 1 0 0 1 1 3 127 101 149 
3 6 0 0 3 3 2 127 101 
1 4 0 0 1 2 2 104 102 
6 2 0 0 1 2 2 110 103 
2 2 0 0 1 1 3 126 120 105 
9 2 0 0 2 1 3 114 110 107 
6 5 0 0 4 5 1 106 
3 3 0 0 5 1 2 114 107 
1 3 0 0 2 3 2 119 108 
4 2 0 0 3 1 2 116 109 
6 4 0 0 6 2 1 111 
2 1 0 0 3 5 1 111 
2 2 0 0 2 4 2 125 112 
7 3 0 0 3 2 1 113 
3 2 0 0 4 2 3 124 118 115 
2 2 0 0 2 1 3 125 124 115 
2 4 0 0 2 4 3 123 122 117 
8 3 0 0 6 4 1 117 
2 3 0 0 1 1 1 121 
10 4 0 0 2 2 1 122 
1 2 0 0 2 2 1 125 
1 1 0 0 1 3 1 121 
8 2 0 0 1 4 1 129 
4 1 0 0 3 3 1 129 
2 2 0 0 1 3 1 129 
9 1 0 0 2 3 1 129 
9 2 0 0 1 2 1 129 
9 2 0 0 3 2 1 129 
8 3 0 0 4 3 1 129 
7 1 0 0 3 3 1 129 
0 0 0 0 0 0 1 278 
0 0 0 0 0 0 3 131 132 133 
4 0 0 1 0 0 3 140 135 134 
8 0 0 3 0 0 2 140 134 
8 0 0 2 0 0 2 140 134 
1 0 0 2 0 0 2 138 136 
6 0 0 3 0 0 2 136 168 
4 0 0 4 0 0 1 137 
7 0 0 2 0 0 1 139 
5 0 0 2 0 0 1 139 
8 0 0 2 0 0 1 141 
4 0 0 4 0 0 1 141 
0 0 0 0 0 0 5 142 154 176 198 220 
0 0 0 0 0 0 1 143 
3 0 0 1 0 0 3 147 144 231 
6 0 0 4 0 0 2 146 145 
10 0 0 3 0 0 4 152 151 149 148 
5 0 0 2 0 0 4 152 151 149 148 
6 0 0 1 0 0 2 149 148 
5 0 0 3 0 0 1 150 
2 0 0 3 0 0 1 150 
5 0 0 3 0 0 1 153 
1 0 0 3 0 0 1 153 
2 0 0 2 0 0 1 153 
0 0 0 0 0 0 3 242 254 266 
0 0 0 0 0 0 1 155 
8 0 0 1 1 0 1 156 
10 0 0 1 4 0 2 158 157 
5 0 0 3 2 0 1 159 
7 0 0 2 3 0 1 159 
2 0 0 2 1 0 2 161 160 
4 0 0 1 1 0 2 164 162 
3 0 0 2 3 0 3 168 164 163 
4 0 0 3 3 0 2 168 163 
7 0 0 1 2 0 3 167 166 165 
3 0 0 6 2 0 5 174 173 171 170 169 
2 0 0 3 3 0 4 174 173 171 169 
6 0 0 3 2 0 4 174 173 170 169 
5 0 0 3 5 0 4 173 171 170 169 
6 0 0 2 2 0 2 174 173 
10 0 0 2 4 0 1 172 
9 0 0 1 3 0 1 172 
4 0 0 4 4 0 1 172 
1 0 0 5 3 0 1 175 
1 0 0 2 1 0 1 175 
2 0 0 3 1 0 1 175 
0 0 0 0 0 0 1 278 
0 0 0 0 0 0 1 177 
4 0 0 1 0 1 2 180 178 
2 0 0 2 0 3 1 179 
6 0 0 2 0 2 1 181 
7 0 0 3 0 3 1 181 
7 0 0 2 0 2 2 183 182 
5 0 0 3 0 4 3 193 189 184 
8 0 0 2 0 2 4 189 188 187 186 
8 0 0 2 0 1 2 188 185 
8 0 0 2 0 2 3 191 187 186 
8 0 0 3 0 2 4 196 195 192 190 
8 0 0 4 0 4 3 196 195 190 
8 0 0 2 0 3 3 195 191 190 
4 0 0 2 0 1 2 195 194 
10 0 0 5 0 3 1 194 
8 0 0 1 0 1 1 194 
5 0 0 1 0 4 1 194 
5 0 0 2 0 4 1 196 
3 0 0 4 0 3 1 197 
9 0 0 6 0 3 1 197 
5 0 0 1 0 2 1 197 
0 0 0 0 0 0 1 278 
0 0 0 0 0 0 2 199 201 
4 1 0 1 0 0 2 204 200 
1 5 0 1 0 0 1 202 
10 2 0 3 0 0 1 202 
6 3 0 2 0 0 2 205 203 
6 1 0 3 0 0 4 210 209 208 206 
1 2 0 2 0 0 5 211 210 209 208 207 
10 2 0 3 0 0 3 211 210 209 
7 2 0 2 0 0 2 211 207 
10 2 0 2 0 0 3 218 216 212 
3 3 0 2 0 0 3 217 216 212 
4 3 0 3 0 0 3 218 216 213 
6 4 0 3 0 0 2 216 212 
7 3 0 3 0 0 3 217 216 215 
1 3 0 2 0 0 1 213 
3 1 0 3 0 0 1 214 
5 3 0 3 0 0 1 215 
3 1 0 3 0 0 1 219 
5 1 0 3 0 0 1 219 
1 2 0 4 0 0 1 219 
9 6 0 2 0 0 1 219 
0 0 0 0 0 0 1 278 
0 0 0 0 0 0 8 221 234 235 236 237 238 239 240 
7 0 0 1 0 1 1 222 
7 0 0 5 0 3 3 233 232 223 
10 0 0 6 0 4 2 231 224 
10 0 0 5 0 5 1 225 
4 0 0 2 0 3 1 226 
6 0 0 1 0 2 1 227 
5 0 0 2 0 3 1 228 
6 0 0 2 0 1 1 229 
10 0 0 2 0 2 1 230 
3 0 0 1 0 2 1 241 
9 0 0 1 0 3 1 241 
10 0 0 2 0 3 1 241 
9 0 0 3 0 1 1 241 
8 0 0 2 0 2 1 241 
6 0 0 5 0 5 1 241 
1 0 0 2 0 2 1 241 
6 0 0 1 0 3 1 241 
3 0 0 2 0 1 1 241 
8 0 0 3 0 2 1 241 
7 0 0 2 0 2 1 241 
0 0 0 0 0 0 1 278 
0 0 0 0 0 0 3 243 248 252 
5 0 0 1 0 0 2 247 244 
4 0 0 1 0 0 2 251 245 
6 0 0 4 0 0 1 246 
3 0 0 3 0 0 1 249 
3 0 0 2 0 0 1 250 
8 0 0 1 0 0 1 249 
6 0 0 5 0 0 1 253 
1 0 0 4 0 0 1 253 
9 0 0 2 0 0 1 253 
5 0 0 2 0 0 1 253 
0 0 0 0 0 0 1 278 
0 0 0 0 0 0 3 255 258 264 
2 0 0 0 0 1 2 261 256 
5 0 0 0 0 3 1 257 
7 0 0 0 0 2 2 263 259 
4 0 0 0 0 2 1 260 
2 0 0 0 0 3 1 262 
3 0 0 0 0 3 1 262 
5 0 0 0 0 3 1 262 
6 0 0 0 0 1 1 265 
2 0 0 0 0 3 1 265 
4 0 0 0 0 4 1 265 
0 0 0 0 0 0 1 278 
0 0 0 0 0 0 3 267 268 270 
3 1 0 0 0 0 3 276 272 269 
10 3 0 0 0 0 2 276 269 
2 3 0 0 0 0 2 275 271 
5 3 0 0 0 0 1 272 
8 4 0 0 0 0 1 273 
8 3 0 0 0 0 1 273 
2 1 0 0 0 0 1 274 
5 3 0 0 0 0 1 277 
1 2 0 0 0 0 1 277 
9 2 0 0 0 0 1 277 
0 0 0 0 0 0 1 278 
0 0 0 0 0 0 5 279 282 283 284 285 
5 0 0 0 0 1 2 287 280 
5 0 0 0 0 4 1 281 
2 0 0 0 0 4 1 286 
10 0 0 0 0 3 1 287 
9 0 0 0 0 2 1 287 
10 0 0 0 0 2 1 286 
5 0 0 0 0 1 1 286 
3 0 0 0 0 4 1 288 
2 0 0 0 0 2 1 288 
3 0 0 0 0 2 1 289 
0 0 0 0 0 0 1 290 
0 0 0 0 0 0 5 291 292 295 296 297 
9 1 0 0 0 0 2 299 293 
9 3 0 0 0 0 2 299 298 
3 4 0 0 0 0 1 294 
6 2 0 0 0 0 1 298 
1 3 0 0 0 0 1 299 
4 1 0 0 0 0 1 299 
6 3 0 0 0 0 1 298 
8 3 0 0 0 0 1 300 
7 1 0 0 0 0 1 300 
4 4 0 0 0 0 1 301 
0 0 0 0 0 0 0 
